10	5
0	3	1	2	4
1	1	5
2	0
3	1	6
4	2	3	7
5	1	7
6	3	8	10	9
7	1	11
8	1	11
9	1	11
10	1	11
11	0
0	0	0	0	0	0	0
1	4	0	0	0	1	0
2	9	1	4	2	1	0
3	10	5	2	4	2	1
4	10	5	4	0	5	3
5	1	5	5	5	5	3
6	2	3	3	4	1	4
7	3	0	0	4	1	3
8	4	1	0	2	0	0
9	5	4	4	5	3	4
10	7	4	4	0	2	3
11	0	0	0	0	0	0
5	5	5	5	5
